<number of tasks>
45

<cycle time>
184

<task times>
1 9
2 9
3 10
4 10
5 17
6 17
7 13
8 13
9 20
10 20
11 10
12 11
13 6
14 22
15 11
16 19
17 12
18 3
19 7
20 4
21 55
22 14
23 27
24 29
25 26
26 6
27 5
28 24
29 4
30 5
31 7
32 4
33 15
34 3
35 7
36 9
37 4
38 7
39 5
40 4
41 21
42 12
43 6
44 5
45 5

<precedence relations>
1,3
1,7
2,4
2,8
3,5
4,6
5,9
6,10
7,9
7,14
8,10
8,14
9,41
10,41
11,13
12,13
12,37
13,14
13,15
14,17
14,25
14,29
14,30
14,31
14,32
15,16
15,18
15,23
15,24
16,19
17,26
17,27
18,19
19,20
19,33
20,21
21,22
22,28
23,33
24,33
25,26
26,38
27,28
27,33
28,38
29,41
30,41
31,41
32,41
33,34
33,35
33,36
34,38
35,40
36,38
37,43
38,40
39,41
40,41
41,42
42,44
42,45

<setup times forward>
1,4:1
1,6:1
1,10:1
1,23:1
1,24:1
1,39:1
1,43:1
2,4:1
2,5:1
2,9:1
2,23:1
2,24:1
2,39:1
2,43:1
3,4:1
3,5:1
3,6:1
3,10:1
3,14:1
3,23:1
3,24:1
3,31:1
3,32:1
3,39:1
3,43:1
4,1:1
4,3:1
4,7:1
4,8:1
4,11:1
4,12:1
4,13:1
4,15:1
4,16:1
4,17:1
4,18:1
4,19:1
4,20:1
4,21:1
4,22:1
4,25:1
4,26:1
4,27:1
4,28:1
4,29:1
4,30:1
4,33:1
4,34:1
4,35:1
4,36:1
4,37:1
4,38:1
4,40:1
5,2:1
5,7:1
5,8:1
5,11:1
5,12:1
5,13:1
5,15:1
5,16:1
5,17:1
5,18:1
5,19:1
5,20:1
5,21:1
5,22:1
5,25:1
5,26:1
5,27:1
5,28:1
5,29:1
5,30:1
5,33:1
5,34:1
5,35:1
5,36:1
5,37:1
5,38:1
5,40:1
6,1:1
6,3:1
6,7:1
6,8:1
6,11:1
6,12:1
6,13:1
6,15:1
6,16:1
6,17:1
6,18:1
6,19:1
6,20:1
6,21:1
6,22:1
6,25:1
6,26:1
6,27:1
6,28:1
6,29:1
6,30:1
6,33:1
6,34:1
6,35:1
6,36:1
6,37:1
6,38:1
6,40:1
7,4:1
7,5:1
7,6:1
7,9:1
7,10:1
7,14:1
7,23:1
7,24:1
7,39:1
7,43:1
8,4:1
8,5:1
8,6:1
8,9:1
8,10:1
8,14:1
8,23:1
8,24:1
8,39:1
8,43:1
9,2:1
9,8:1
9,11:1
9,12:1
9,13:1
9,15:1
9,16:1
9,17:1
9,18:1
9,19:1
9,20:1
9,21:1
9,22:1
9,25:1
9,26:1
9,27:1
9,28:1
9,29:1
9,30:1
9,33:1
9,34:1
9,35:1
9,36:1
9,37:1
9,38:1
9,40:1
9,41:1
10,1:1
10,3:1
10,7:1
10,11:1
10,12:1
10,13:1
10,15:1
10,16:1
10,17:1
10,18:1
10,19:1
10,20:1
10,21:1
10,22:1
10,25:1
10,26:1
10,27:1
10,28:1
10,29:1
10,30:1
10,33:1
10,34:1
10,35:1
10,36:1
10,37:1
10,38:1
10,40:1
10,41:1
11,4:1
11,5:1
11,6:1
11,9:1
11,10:1
11,39:1
11,43:1
12,4:1
12,5:1
12,6:1
12,9:1
12,10:1
12,39:1
13,4:1
13,5:1
13,6:1
13,9:1
13,10:1
13,14:1
13,39:1
13,43:1
14,3:1
14,15:1
14,16:1
14,17:1
14,18:1
14,19:1
14,20:1
14,21:1
14,22:1
14,25:1
14,29:1
14,30:1
14,37:1
15,4:1
15,5:1
15,6:1
15,9:1
15,10:1
15,14:1
15,23:1
15,24:1
15,31:1
15,32:1
15,39:1
15,43:1
16,4:1
16,5:1
16,6:1
16,9:1
16,10:1
16,14:1
16,23:1
16,24:1
16,31:1
16,32:1
16,39:1
16,43:1
17,4:1
17,5:1
17,6:1
17,9:1
17,10:1
17,23:1
17,24:1
17,31:1
17,32:1
17,39:1
17,43:1
18,4:1
18,5:1
18,6:1
18,9:1
18,10:1
18,14:1
18,23:1
18,24:1
18,31:1
18,32:1
18,39:1
18,43:1
19,4:1
19,5:1
19,6:1
19,9:1
19,10:1
19,14:1
19,23:1
19,24:1
19,31:1
19,32:1
19,39:1
19,43:1
20,4:1
20,5:1
20,6:1
20,9:1
20,10:1
20,14:1
20,23:1
20,24:1
20,31:1
20,32:1
20,39:1
20,43:1
21,4:1
21,5:1
21,6:1
21,9:1
21,10:1
21,14:1
21,23:1
21,24:1
21,31:1
21,32:1
21,39:1
21,43:1
22,4:1
22,5:1
22,6:1
22,9:1
22,10:1
22,14:1
22,23:1
22,24:1
22,31:1
22,32:1
22,39:1
22,43:1
23,1:1
23,2:1
23,3:1
23,7:1
23,8:1
23,16:1
23,17:1
23,18:1
23,19:1
23,20:1
23,21:1
23,22:1
23,25:1
23,26:1
23,27:1
23,28:1
23,29:1
23,30:1
23,33:1
23,37:1
24,1:1
24,2:1
24,3:1
24,7:1
24,8:1
24,16:1
24,17:1
24,18:1
24,19:1
24,20:1
24,21:1
24,22:1
24,25:1
24,26:1
24,27:1
24,28:1
24,29:1
24,30:1
24,33:1
24,37:1
25,4:1
25,5:1
25,6:1
25,9:1
25,10:1
25,23:1
25,24:1
25,31:1
25,32:1
25,39:1
25,43:1
26,4:1
26,5:1
26,6:1
26,9:1
26,10:1
26,23:1
26,24:1
26,31:1
26,32:1
26,39:1
26,43:1
27,4:1
27,5:1
27,6:1
27,9:1
27,10:1
27,23:1
27,24:1
27,31:1
27,32:1
27,39:1
27,43:1
28,4:1
28,5:1
28,6:1
28,9:1
28,10:1
28,23:1
28,24:1
28,31:1
28,32:1
28,39:1
28,43:1
29,4:1
29,5:1
29,6:1
29,9:1
29,10:1
29,23:1
29,24:1
29,31:1
29,32:1
29,39:1
29,43:1
30,4:1
30,5:1
30,6:1
30,9:1
30,10:1
30,23:1
30,24:1
30,31:1
30,32:1
30,39:1
30,43:1
31,3:1
31,15:1
31,16:1
31,17:1
31,18:1
31,19:1
31,20:1
31,21:1
31,22:1
31,25:1
31,26:1
31,27:1
31,28:1
31,29:1
31,30:1
31,33:1
31,34:1
31,35:1
31,36:1
31,37:1
31,38:1
31,40:1
31,41:1
32,3:1
32,15:1
32,16:1
32,17:1
32,18:1
32,19:1
32,20:1
32,21:1
32,22:1
32,25:1
32,26:1
32,27:1
32,28:1
32,29:1
32,30:1
32,33:1
32,34:1
32,35:1
32,36:1
32,37:1
32,38:1
32,40:1
32,41:1
33,4:1
33,5:1
33,6:1
33,9:1
33,10:1
33,31:1
33,32:1
33,39:1
33,43:1
34,4:1
34,5:1
34,6:1
34,9:1
34,10:1
34,31:1
34,32:1
34,39:1
34,43:1
35,4:1
35,5:1
35,6:1
35,9:1
35,10:1
35,31:1
35,32:1
35,39:1
35,43:1
36,4:1
36,5:1
36,6:1
36,9:1
36,10:1
36,31:1
36,32:1
36,39:1
36,43:1
37,4:1
37,5:1
37,6:1
37,9:1
37,10:1
37,14:1
37,23:1
37,24:1
37,31:1
37,32:1
37,39:1
37,43:1
38,4:1
38,5:1
38,6:1
38,9:1
38,10:1
38,31:1
38,32:1
38,39:1
38,43:1
39,1:1
39,2:1
39,3:1
39,7:1
39,8:1
39,11:1
39,12:1
39,13:1
39,15:1
39,16:1
39,17:1
39,18:1
39,19:1
39,20:1
39,21:1
39,22:1
39,25:1
39,26:1
39,27:1
39,28:1
39,29:1
39,30:1
39,33:1
39,34:1
39,35:1
39,36:1
39,37:1
39,38:1
39,40:1
39,41:1
40,4:1
40,5:1
40,6:1
40,9:1
40,10:1
40,31:1
40,32:1
40,39:1
40,43:1
41,43:1
42,43:1
43,1:1
43,2:1
43,3:1
43,7:1
43,8:1
43,11:1
43,13:1
43,15:1
43,16:1
43,17:1
43,18:1
43,19:1
43,20:1
43,21:1
43,22:1
43,25:1
43,26:1
43,27:1
43,28:1
43,29:1
43,30:1
43,33:1
43,34:1
43,35:1
43,36:1
43,38:1
43,40:1
43,41:1
43,42:1
43,44:1
43,45:1
44,43:1
45,43:1

<setup times backward>
4,1:1
4,2:1
4,3:1
4,7:1
4,8:1
4,11:1
4,12:1
4,13:1
4,15:1
4,16:1
4,17:1
4,18:1
4,19:1
4,20:1
4,21:1
4,22:1
4,25:1
4,26:1
4,27:1
4,28:1
4,29:1
4,30:1
4,33:1
4,34:1
4,35:1
4,36:1
4,37:1
4,38:1
4,40:1
5,1:1
5,2:1
5,3:1
5,7:1
5,8:1
5,11:1
5,12:1
5,13:1
5,15:1
5,16:1
5,17:1
5,18:1
5,19:1
5,20:1
5,21:1
5,22:1
5,25:1
5,26:1
5,27:1
5,28:1
5,29:1
5,30:1
5,33:1
5,34:1
5,35:1
5,36:1
5,37:1
5,38:1
5,40:1
6,1:1
6,2:1
6,3:1
6,7:1
6,8:1
6,11:1
6,12:1
6,13:1
6,15:1
6,16:1
6,17:1
6,18:1
6,19:1
6,20:1
6,21:1
6,22:1
6,25:1
6,26:1
6,27:1
6,28:1
6,29:1
6,30:1
6,33:1
6,34:1
6,35:1
6,36:1
6,37:1
6,38:1
6,40:1
9,1:1
9,2:1
9,3:1
9,7:1
9,8:1
9,11:1
9,12:1
9,13:1
9,15:1
9,16:1
9,17:1
9,18:1
9,19:1
9,20:1
9,21:1
9,22:1
9,25:1
9,26:1
9,27:1
9,28:1
9,29:1
9,30:1
9,33:1
9,34:1
9,35:1
9,36:1
9,37:1
9,38:1
9,40:1
10,1:1
10,2:1
10,3:1
10,7:1
10,8:1
10,11:1
10,12:1
10,13:1
10,15:1
10,16:1
10,17:1
10,18:1
10,19:1
10,20:1
10,21:1
10,22:1
10,25:1
10,26:1
10,27:1
10,28:1
10,29:1
10,30:1
10,33:1
10,34:1
10,35:1
10,36:1
10,37:1
10,38:1
10,40:1
14,1:1
14,2:1
14,3:1
14,7:1
14,8:1
14,11:1
14,12:1
14,13:1
14,15:1
14,16:1
14,18:1
14,19:1
14,20:1
14,21:1
14,22:1
14,37:1
23,1:1
23,2:1
23,3:1
23,7:1
23,8:1
23,11:1
23,12:1
23,13:1
23,15:1
23,16:1
23,17:1
23,18:1
23,19:1
23,20:1
23,21:1
23,22:1
23,25:1
23,26:1
23,27:1
23,28:1
23,29:1
23,30:1
23,37:1
24,1:1
24,2:1
24,3:1
24,7:1
24,8:1
24,11:1
24,12:1
24,13:1
24,15:1
24,16:1
24,17:1
24,18:1
24,19:1
24,20:1
24,21:1
24,22:1
24,25:1
24,26:1
24,27:1
24,28:1
24,29:1
24,30:1
24,37:1
31,1:1
31,2:1
31,3:1
31,7:1
31,8:1
31,11:1
31,12:1
31,13:1
31,15:1
31,16:1
31,17:1
31,18:1
31,19:1
31,20:1
31,21:1
31,22:1
31,25:1
31,26:1
31,27:1
31,28:1
31,29:1
31,30:1
31,33:1
31,34:1
31,35:1
31,36:1
31,37:1
31,38:1
31,40:1
32,1:1
32,2:1
32,3:1
32,7:1
32,8:1
32,11:1
32,12:1
32,13:1
32,15:1
32,16:1
32,17:1
32,18:1
32,19:1
32,20:1
32,21:1
32,22:1
32,25:1
32,26:1
32,27:1
32,28:1
32,29:1
32,30:1
32,33:1
32,34:1
32,35:1
32,36:1
32,37:1
32,38:1
32,40:1
39,1:1
39,2:1
39,3:1
39,7:1
39,8:1
39,11:1
39,12:1
39,13:1
39,15:1
39,16:1
39,17:1
39,18:1
39,19:1
39,20:1
39,21:1
39,22:1
39,25:1
39,26:1
39,27:1
39,28:1
39,29:1
39,30:1
39,33:1
39,34:1
39,35:1
39,36:1
39,37:1
39,38:1
39,40:1
43,1:1
43,2:1
43,3:1
43,7:1
43,8:1
43,11:1
43,12:1
43,13:1
43,15:1
43,16:1
43,17:1
43,18:1
43,19:1
43,20:1
43,21:1
43,22:1
43,25:1
43,26:1
43,27:1
43,28:1
43,29:1
43,30:1
43,33:1
43,34:1
43,35:1
43,36:1
43,37:1
43,38:1
43,40:1
43,41:1
43,42:1
43,44:1
43,45:1

<end>

<optimal SALBP-1 value>
3


<rand seed>
467321153

